% Logging successfully configured
%%%mzn-stat: initTime=0.072740866
%%%mzn-stat: objective=824
%%%mzn-stat: nodes=59575
%%%mzn-stat: restarts=0
%%%mzn-stat: peakDepth=2509
%%%mzn-stat: solveTime=6.601135038
%%%mzn-stat: variables=3308
%%%mzn-stat: propagators=2876
%%%mzn-stat: failures=1282
%%%mzn-stat: propagations=371946
%%%mzn-stat: nogoods=1282
%%%mzn-stat: numAtomicConstraintsPropagated=0
%%%mzn-stat: allDifferentNumber1TotalHallSetSize=4280
%%%mzn-stat: allDifferentNumber1NumberOfConflicts=1252
%%%mzn-stat: allDifferentNumber1MaxHallSetSize=78
%%%mzn-stat: allDifferentNumber1PropagationsTotal=81597
%%%mzn-stat: allDifferentNumber1PropagationsThatFoundConflict=1252
%%%mzn-stat: circuitNumber2PropagationsThatFoundConflict=11
%%%mzn-stat: circuitNumber2TotalFixedEdgesAtConflict=1578
%%%mzn-stat: circuitNumber2NumberOfConflicts=11
%%%mzn-stat: circuitNumber2PropagationsThatPruned=684
%%%mzn-stat: circuitNumber2PropagationsTotal=56823
%%%mzn-stat: AverageConflictSize=4.697347893915756
%%%mzn-stat: NumUnitNogoodsLearned=0
%%%mzn-stat: AverageLearnedNogoodLength=6.75585023400936
%%%mzn-stat: AverageBacktrackAmount=0
%%%mzn-stat: AverageLbd=6.522620904836193
%%%mzn-stat: 2AutonomousSearchNumBackupCalled=2378
%%%mzn-stat: 2AutonomousSearchNumPredicatesRemoved=0
%%%mzn-stat: 2AutonomousSearchNumCalls=2379
%%%mzn-stat: 2AutonomousSearchNumPredicatesAdded=2127
%%%mzn-stat: 2AutonomousSearchAverageSizeOfHeap=0.8940731399747793
%%%mzn-stat: 2AutonomousSearchNumAssignedPredicatesEncountered=2127
%%%mzn-stat-end
maxleg = 824;
succ = array1d(1..150,[8, 4, 32, 15, 14, 10, 20, 13, 39, 18, 12, 17, 22, 16, 38, 21, 24, 50, 5, 23, 36, 2, 27, 30, 11, 1, 25, 34, 6, 42, 7, 45, 31, 33, 26, 3, 28, 40, 46, 60, 19, 53, 62, 35, 49, 54, 64, 41, 65, 51, 37, 9, 43, 58, 80, 44, 73, 81, 29, 63, 59, 71, 66, 56, 67, 74, 61, 48, 68, 69, 72, 76, 98, 57, 79, 89, 92, 52, 85, 91, 75, 78, 70, 47, 96, 83, 86, 87, 105, 124, 93, 136, 77, 82, 99, 90, 55, 102, 118, 97, 103, 106, 110, 84, 132, 109, 116, 126, 108, 123, 114, 119, 94, 135, 113, 143, 104, 112, 127, 117, 120, 107, 144, 150, 138, 111, 131, 130, 101, 139, 100, 95, 141, 121, 125, 149, 142, 147, 145, 129, 128, 134, 88, 146, 115, 148, 122, 137, 133, 140]);
% time elapsed: 10.47 s
----------
%%%mzn-stat: initTime=0.072740866
%%%mzn-stat: objective=291
%%%mzn-stat: nodes=66712
%%%mzn-stat: restarts=0
%%%mzn-stat: peakDepth=2509
%%%mzn-stat: solveTime=7.273935374
%%%mzn-stat: variables=3308
%%%mzn-stat: propagators=2876
%%%mzn-stat: failures=1873
%%%mzn-stat: propagations=416559
%%%mzn-stat: nogoods=1873
%%%mzn-stat: numAtomicConstraintsPropagated=0
%%%mzn-stat: allDifferentNumber1TotalHallSetSize=11300
%%%mzn-stat: allDifferentNumber1NumberOfConflicts=1799
%%%mzn-stat: allDifferentNumber1MaxHallSetSize=78
%%%mzn-stat: allDifferentNumber1PropagationsTotal=89289
%%%mzn-stat: allDifferentNumber1PropagationsThatFoundConflict=1799
%%%mzn-stat: circuitNumber2PropagationsThatFoundConflict=41
%%%mzn-stat: circuitNumber2TotalFixedEdgesAtConflict=5802
%%%mzn-stat: circuitNumber2NumberOfConflicts=41
%%%mzn-stat: circuitNumber2PropagationsThatPruned=1080
%%%mzn-stat: circuitNumber2PropagationsTotal=62074
%%%mzn-stat: AverageConflictSize=8.362520021356113
%%%mzn-stat: NumUnitNogoodsLearned=0
%%%mzn-stat: AverageLearnedNogoodLength=16.56166577682862
%%%mzn-stat: AverageBacktrackAmount=0
%%%mzn-stat: AverageLbd=14.040042712226375
%%%mzn-stat: 2AutonomousSearchNumBackupCalled=4725
%%%mzn-stat: 2AutonomousSearchNumPredicatesRemoved=0
%%%mzn-stat: 2AutonomousSearchNumCalls=4727
%%%mzn-stat: 2AutonomousSearchNumPredicatesAdded=3831
%%%mzn-stat: 2AutonomousSearchAverageSizeOfHeap=1.0909667865453776
%%%mzn-stat: 2AutonomousSearchNumAssignedPredicatesEncountered=5157
%%%mzn-stat-end
maxleg = 291;
succ = array1d(1..150,[8, 4, 32, 15, 14, 10, 20, 13, 39, 18, 12, 17, 22, 16, 38, 21, 24, 50, 5, 23, 36, 2, 27, 30, 11, 1, 25, 34, 6, 42, 7, 45, 31, 33, 26, 3, 28, 40, 46, 60, 19, 53, 62, 35, 49, 54, 64, 41, 65, 51, 57, 9, 43, 58, 37, 44, 73, 81, 29, 63, 59, 71, 66, 56, 67, 74, 61, 48, 68, 69, 72, 76, 98, 75, 79, 89, 92, 52, 85, 55, 90, 78, 70, 47, 96, 83, 86, 87, 88, 124, 80, 105, 77, 82, 99, 101, 91, 102, 118, 97, 103, 106, 110, 84, 132, 109, 116, 126, 150, 142, 114, 119, 104, 135, 113, 122, 128, 112, 127, 115, 120, 138, 129, 108, 107, 111, 131, 139, 144, 141, 100, 95, 149, 117, 143, 121, 94, 147, 145, 123, 133, 134, 125, 146, 130, 148, 136, 137, 93, 140]);
% time elapsed: 11.15 s
----------
%%%mzn-stat: initTime=0.072740866
%%%mzn-stat: objective=278
%%%mzn-stat: nodes=72326
%%%mzn-stat: restarts=0
%%%mzn-stat: peakDepth=2509
%%%mzn-stat: solveTime=7.712570864
%%%mzn-stat: variables=3308
%%%mzn-stat: propagators=2876
%%%mzn-stat: failures=2090
%%%mzn-stat: propagations=446168
%%%mzn-stat: nogoods=2090
%%%mzn-stat: numAtomicConstraintsPropagated=0
%%%mzn-stat: allDifferentNumber1TotalHallSetSize=12082
%%%mzn-stat: allDifferentNumber1NumberOfConflicts=1956
%%%mzn-stat: allDifferentNumber1MaxHallSetSize=78
%%%mzn-stat: allDifferentNumber1PropagationsTotal=93818
%%%mzn-stat: allDifferentNumber1PropagationsThatFoundConflict=1956
%%%mzn-stat: circuitNumber2PropagationsThatFoundConflict=92
%%%mzn-stat: circuitNumber2TotalFixedEdgesAtConflict=13281
%%%mzn-stat: circuitNumber2NumberOfConflicts=92
%%%mzn-stat: circuitNumber2PropagationsThatPruned=1187
%%%mzn-stat: circuitNumber2PropagationsTotal=65519
%%%mzn-stat: AverageConflictSize=10.09377990430622
%%%mzn-stat: NumUnitNogoodsLearned=0
%%%mzn-stat: AverageLearnedNogoodLength=18.964114832535884
%%%mzn-stat: AverageBacktrackAmount=0
%%%mzn-stat: AverageLbd=16.435406698564595
%%%mzn-stat: 2AutonomousSearchNumBackupCalled=7093
%%%mzn-stat: 2AutonomousSearchNumPredicatesRemoved=0
%%%mzn-stat: 2AutonomousSearchNumCalls=7096
%%%mzn-stat: 2AutonomousSearchNumPredicatesAdded=4732
%%%mzn-stat: 2AutonomousSearchAverageSizeOfHeap=1.1661499436302143
%%%mzn-stat: 2AutonomousSearchNumAssignedPredicatesEncountered=8275
%%%mzn-stat-end
maxleg = 278;
succ = array1d(1..150,[8, 4, 32, 15, 14, 10, 20, 13, 39, 18, 12, 17, 22, 16, 38, 21, 24, 50, 5, 23, 36, 2, 27, 30, 11, 1, 25, 34, 6, 42, 7, 45, 31, 37, 26, 3, 55, 40, 46, 60, 19, 53, 62, 35, 49, 54, 33, 41, 65, 51, 57, 9, 43, 58, 80, 44, 73, 81, 29, 63, 59, 71, 66, 28, 67, 74, 61, 48, 68, 69, 72, 76, 98, 75, 79, 89, 92, 52, 85, 91, 90, 56, 70, 47, 96, 83, 86, 87, 88, 124, 93, 105, 77, 78, 99, 101, 100, 102, 118, 133, 103, 106, 110, 64, 132, 109, 116, 126, 108, 142, 114, 119, 84, 135, 94, 122, 104, 112, 127, 115, 120, 138, 129, 150, 107, 111, 131, 113, 144, 139, 97, 95, 141, 117, 143, 149, 82, 147, 145, 123, 130, 134, 125, 146, 128, 148, 136, 137, 121, 140]);
% time elapsed: 11.59 s
----------
